13
-1 1 40 29 50 67 75 19 6 80 25 4 32
95 -1 83 87 12 35 4 82 39 71 55 77 9
97 88 -1 79 69 98 16 11 30 57 69 69 67
7 45 35 -1 82 62 92 41 80 31 55 85 34
61 31 89 74 -1 14 53 2 87 93 47 40 60
68 92 69 43 93 -1 28 16 91 54 15 6 41
59 26 40 64 6 67 -1 81 1 37 77 75 83
98 30 78 44 56 4 5 -1 44 43 3 86 5
1 15 42 77 23 4 41 27 -1 9 89 87 90
71 42 86 51 16 37 20 6 85 -1 80 95 84
42 68 17 66 65 89 6 66 8 29 -1 31 45
18 82 10 10 83 39 83 41 65 45 75 -1 46
93 10 9 51 17 48 3 38 40 49 30 40 -1
